57,5
53,69
21,72
18,39
154,70
193,92
129,41
93,46
44,95
94,5
49,86
197,57
67,50
8,16
19,52
55,37
49,6
128,61
131,77
149,42
76,56
136,45
132,14
67,56
134,100
165,71
70,40
3,27
53,23
131,61
29,56
11,19
75,27
74,46
168,14
195,30
133,33
93,68
181,68
124,85
131,64
72,15
73,87
183,1
171,91
42,59
126,29
59,88
51,51
110,90
